6104,6412,12886,17227,7834,7686,15305,20420,26101,3150,18885,14899,12071,22536,7286,10989,16968,22049,14626,21942,13727,14593,19563,5283,4705,6776,25894,15433,15552,25601,24259,17413,10617,11470,10516,11033,16528,2778,764,6917,14074,21022,19934,14840,2050,8657,17463,6953,22661,19783,1553,14171,20956,8578,7039,18393,23906,18813,6905,703,16392,9133,17058,23739,10434,20239,20710,13644,23007,13135,13360,21380,3850,6104